(set-logic HORN)
(declare-fun inv ((_ BitVec 32) (_ BitVec 32) (_ BitVec 32) (_ BitVec 32) (_ BitVec 32) (_ BitVec 32) ) Bool)
(assert (forall ((n0 (_ BitVec 32)) (n1 (_ BitVec 32)) (i0 (_ BitVec 32)) (k (_ BitVec 32)) (i1 (_ BitVec 32)) (j1 (_ BitVec 32))) 
       (=> ( and ( bvule ( bvsub (_ bv0 32) (_ bv1000000 32) ) n0 ) ( bvult n0 (_ bv1000000 32) ) ( bvule ( bvsub (_ bv0 32) (_ bv1000000 32) ) n1 ) ( bvult n1 (_ bv1000000 32) ) ( = i1 (_ bv0 32) ) ( = j1 (_ bv0 32) ) ( = i0 (_ bv0 32) ) ( = k (_ bv0 32) ) ) (inv n0 n1 i0 k i1 j1))))
(assert (forall ((n0 (_ BitVec 32)) (n1 (_ BitVec 32)) (i0 (_ BitVec 32)) (k (_ BitVec 32)) (i1 (_ BitVec 32)) (j1 (_ BitVec 32)) (n0! (_ BitVec 32)) (n1! (_ BitVec 32)) (i0! (_ BitVec 32)) (k! (_ BitVec 32)) (i1! (_ BitVec 32)) (j1! (_ BitVec 32))) 
       (=> (and (inv n0 n1 i0 k i1 j1) ( or ( and ( bvult i0 n0 ) ( = i0! ( bvadd i0 (_ bv1 32) ) ) ( = k! ( bvadd k (_ bv1 32) ) ) ( = n0! n0 ) ( = n1! n1 ) ( = i1! i1 ) ( = j1! j1 ) ) ( and ( bvuge i0 n0 ) ( bvult i1 n1 ) ( = i1! ( bvadd i1 (_ bv1 32) ) ) ( = k! ( bvadd k (_ bv1 32) ) ) ( = n0! n0 ) ( = n1! n1 ) ( = i0! i0 ) ( = j1! j1 ) ) ( and ( bvuge i0 n0 ) ( bvuge i1 n1 ) ( bvult j1 ( bvadd n0 n1 ) ) ( = j1! ( bvadd j1 (_ bv1 32) ) ) ( = k! ( bvsub k (_ bv1 32) ) ) ( = n0! n0 ) ( = n1! n1 ) ( = i0! i0 ) ( = i1! i1 ) ) )) (inv n0! n1! i0! k! i1! j1!))))
(assert (forall ((n0 (_ BitVec 32)) (n1 (_ BitVec 32)) (i0 (_ BitVec 32)) (k (_ BitVec 32)) (i1 (_ BitVec 32)) (j1 (_ BitVec 32))) 
       (=> (inv n0 n1 i0 k i1 j1) ( let ( ( a!1 ( not ( and ( bvuge i0 n0 ) ( bvuge i1 n1 ) ( bvult j1 ( bvadd n0 n1 ) ) ) ) ) ) ( or a!1 ( bvugt k (_ bv0 32) ) ) ))))
(check-sat)
